lib/General_Track/from_2018/CrCi/CrCy_10-sbox2-D5-sIn46.sl

(set-logic BV)


(define-fun origCir ( (LN1 Bool) (LN92 Bool) (LN100 Bool)  )  Bool    
          (xor  LN100(and  LN92 LN1 ) )
)


(synth-fun skel ( (LN1 Bool) (LN92 Bool) (LN100 Bool)  )  Bool    
          ((Start Bool (
		                                  (and depth1 depth1)
		                                  (not depth1)
		                                  (or depth1 depth1)
		                                  (xor depth1 depth1)
          ))
          (depth1 Bool (
		                                  (and depth2 depth2)
		                                  (not depth2)
		                                  (or depth2 depth2)
		                                  (xor depth2 depth2)
		                                  LN92
          ))
          (depth2 Bool (
		                                  (and depth3 depth3)
		                                  (not depth3)
		                                  (or depth3 depth3)
		                                  (xor depth3 depth3)
		                                  LN100
          ))
          (depth3 Bool (
		                                  (and depth4 depth4)
		                                  (not depth4)
		                                  (or depth4 depth4)
		                                  (xor depth4 depth4)
          ))
          (depth4 Bool (
		                                  LN1
          )))
)


(declare-var LN1 Bool)
(declare-var LN92 Bool)
(declare-var LN100 Bool)

(constraint (= (origCir LN1 LN92 LN100 ) (skel LN1 LN92 LN100 )))


(check-synth)

